c Sudoku solution
p cnf 729 0
168 0
189 0
234 0
241 0
273 0
315 0
332 0
356 0
543 0
558 0
561 0
585 0
665 0
687 0
698 0
717 0
816 0
828 0
218 0
438 0
425 0
849 0
867 0
874 0
919 0
935 0
951 0
966 0
537 0
639 0
136 0
654 0
731 0
833 0
924 0
722 0
526 0
269 0
227 0
329 0
363 0
753 0
764 0
459 0
447 0
646 0
462 0
344 0
157 0
194 0
484 0
493 0
476 0
671 0
411 0
623 0
612 0
514 0
113 0
121 0
983 0
592 0
579 0
799 0
786 0
282 0
175 0
296 0
142 0
255 0
948 0
852 0
745 0
778 0
895 0
881 0
972 0
997 0
377 0
391 0
388 0
